p tw 40 98
0 1
0 28
0 17
0 8
0 15
1 27
1 33
1 31
2 3
2 9
2 28
2 21
3 4
3 18
3 26
3 33
3 35
4 5
4 6
4 24
4 19
4 26
5 26
5 7
5 21
6 31
6 20
6 39
6 14
6 34
7 8
7 34
7 29
7 12
7 16
8 25
8 32
8 36
8 28
8 18
8 29
8 27
8 34
9 28
9 26
9 32
9 21
10 11
10 18
10 15
11 22
11 27
11 12
12 13
12 24
12 35
12 14
12 20
12 21
13 17
13 30
13 29
14 15
14 19
14 23
14 21
14 34
15 34
15 33
16 17
16 37
16 19
17 23
17 26
18 19
18 33
19 22
19 35
20 21
20 31
21 29
22 32
22 38
23 29
23 39
23 25
25 35
25 29
25 28
25 32
27 28
28 39
28 38
29 30
31 33
33 37
34 36
35 37
